
Gurobi 11.0.0 (linux64) logging started Thu Dec  5 15:06:08 2024

Set parameter LogFile to value "gurobi.log"
Set parameter InfUnbdInfo to value 1
Gurobi Optimizer version 11.0.0 build v11.0.0rc2 (linux64 - "Ubuntu 22.04.4 LTS")

CPU model: AMD EPYC 7V13 64-Core Processor, instruction set [SSE2|AVX|AVX2]
Thread count: 128 physical cores, 128 logical processors, using up to 32 threads

Optimize a model with 65 rows, 206 columns and 186 nonzeros
Model fingerprint: 0x7e79f73b
Model has 108 quadratic constraints
Model has 19 general constraints
Variable types: 41 continuous, 165 integer (0 binary)
Coefficient statistics:
  Matrix range     [1e+00, 2e+01]
  QMatrix range    [1e+00, 4e+02]
  QLMatrix range   [1e+00, 1e+00]
  Objective range  [1e+00, 1e+00]
  Bounds range     [1e+00, 2e+06]
  RHS range        [1e+00, 2e+06]
  QRHS range       [1e+03, 9e+03]
Using branch priorities (all 0).
Presolve added 47 rows and 84 columns
Presolve time: 0.01s
Presolved: 527 rows, 501 columns, 2449 nonzeros
Presolved model has 120 SOS constraint(s)
Presolved model has 35 bilinear constraint(s)
Warning: Model contains variables with very large bounds participating
         in product terms.
         Presolve was not able to compute smaller bounds for these variables.
         Consider bounding these variables or reformulating the model.


Solving non-convex MIQCP

Variable types: 129 continuous, 372 integer (103 binary)

Root relaxation: objective 6.882525e+01, 172 iterations, 0.00 seconds (0.00 work units)

    Nodes    |    Current Node    |     Objective Bounds      |     Work
 Expl Unexpl |  Obj  Depth IntInf | Incumbent    BestBd   Gap | It/Node Time

     0     0   68.82525    0   85          -   68.82525      -     -    0s
     0     0   74.75000    0   79          -   74.75000      -     -    0s
H    0     0                    322193.50000   74.75000   100%     -    0s
H    0     0                    242653.50000   74.75000   100%     -    0s
     0     0  119.78235    0   86 242653.500  119.78235   100%     -    0s
     0     0  123.37833    0   81 242653.500  123.37833   100%     -    0s
     0     0  131.79536    0   86 242653.500  131.79536   100%     -    0s
     0     0  131.79536    0   44 242653.500  131.79536   100%     -    0s
     0     0  131.79536    0   64 242653.500  131.79536   100%     -    0s
     0     0  131.79536    0   66 242653.500  131.79536   100%     -    0s
     0     0  132.23946    0   76 242653.500  132.23946   100%     -    0s
     0     0  132.36855    0   69 242653.500  132.36855   100%     -    0s
     0     0  132.57064    0   67 242653.500  132.57064   100%     -    0s
H    0     0                    85192.250000  132.61697   100%     -    0s
     0     0  132.61697    0   67 85192.2500  132.61697   100%     -    0s
     0     0  133.09844    0   67 85192.2500  133.09844   100%     -    0s
     0     0  133.09844    0   67 85192.2500  133.09844   100%     -    0s
H    0     0                    84222.250000  133.09844   100%     -    0s
     0     0  136.56234    0   73 84222.2500  136.56234   100%     -    0s
     0     0  136.63800    0   75 84222.2500  136.63800   100%     -    0s
     0     0  157.79498    0   74 84222.2500  157.79498   100%     -    0s
     0     0  184.89705    0   57 84222.2500  184.89705   100%     -    0s
     0     0  222.33120    0   64 84222.2500  222.33120   100%     -    0s
     0     0  247.87182    0   64 84222.2500  247.87182   100%     -    0s
     0     0  247.87182    0   75 84222.2500  247.87182   100%     -    0s
     0     0  247.87182    0   71 84222.2500  247.87182   100%     -    0s
     0     0  247.87182    0   51 84222.2500  247.87182   100%     -    0s
     0     0  247.87182    0   63 84222.2500  247.87182   100%     -    0s
     0     0  317.45985    0   78 84222.2500  317.45985   100%     -    0s
     0     0  384.11274    0   73 84222.2500  384.11274   100%     -    0s
     0     0  574.56786    0   74 84222.2500  574.56786  99.3%     -    1s
H    0     0                    84016.750000  574.56786  99.3%     -    1s
     0     0  617.68985    0   73 84016.7500  617.68985  99.3%     -    1s
     0     0  644.05677    0   65 84016.7500  644.05677  99.2%     -    1s
H    0     0                    83797.687500  644.05677  99.2%     -    1s
     0     0  646.88448    0   75 83797.6875  646.88448  99.2%     -    1s
     0     0  656.23165    0   63 83797.6875  656.23165  99.2%     -    1s
H    0     0                    83719.500000  656.23165  99.2%     -    1s
     0     0  659.01992    0   77 83719.5000  659.01992  99.2%     -    1s
     0     0  666.70944    0   64 83719.5000  666.70944  99.2%     -    1s
     0     0  668.38097    0   80 83719.5000  668.38097  99.2%     -    1s
     0     0  686.15064    0   67 83719.5000  686.15064  99.2%     -    1s
     0     0  689.72050    0   70 83719.5000  689.72050  99.2%     -    1s
     0     0  704.23614    0   61 83719.5000  704.23614  99.2%     -    1s
     0     0  707.66112    0   75 83719.5000  707.66112  99.2%     -    1s
     0     0  707.89962    0   68 83719.5000  707.89962  99.2%     -    1s
H    0     0                    83111.492291  707.89962  99.1%     -    1s
     0     0  708.02756    0   87 83111.4923  708.02756  99.1%     -    1s
     0     0  720.89475    0   86 83111.4923  720.89475  99.1%     -    1s
     0     0  723.09700    0   78 83111.4923  723.09700  99.1%     -    1s
     0     0  730.23632    0   74 83111.4923  730.23632  99.1%     -    2s
     0     0  733.30456    0   85 83111.4923  733.30456  99.1%     -    2s
     0     0  738.56003    0   75 83111.4923  738.56003  99.1%     -    2s
     0     0  739.33405    0   87 83111.4923  739.33405  99.1%     -    2s
     0     0  740.39644    0   88 83111.4923  740.39644  99.1%     -    2s
     0     0  741.10522    0   86 83111.4923  741.10522  99.1%     -    2s
H    0     0                    22649.526839  741.16988  96.7%     -    2s
     0     0  741.18003    0   73 22649.5268  741.18003  96.7%     -    2s
     0     0  751.58805    0   73 22649.5268  751.58805  96.7%     -    2s
     0     0  758.87395    0   62 22649.5268  758.87395  96.6%     -    3s
     0     2  758.87395    0   59 22649.5268  758.87395  96.6%     -    3s
H   45    28                    21232.622269  758.87395  96.4%  22.2    3s
H  103    58                    21213.804791  758.87395  96.4%  19.9    4s
H  142   108                    17800.750000  758.87395  95.7%  16.4    4s
H  146   108                    14600.246333  758.87395  94.8%  16.5    4s
H  259   120                    14021.520419  758.87395  94.6%  11.9    4s
*  470   283              19    13989.184769  758.87395  94.6%   9.4    4s
*  471   283              17    12210.161642  758.87395  93.8%   9.4    4s
*  483   283              19    11334.782238  758.87395  93.3%   9.3    4s
H  882   321                    11302.130500  758.87395  93.3%   8.8    4s
H  906   321                    10759.184769  758.87395  92.9%   8.7    4s
H 1239   202                    10757.548651  758.87395  92.9%   7.9    4s
* 1581    97              28    10757.048651 10754.2308  0.03%   6.8    4s

Cutting planes:
  Learned: 1
  Gomory: 10
  Implied bound: 35
  MIR: 61
  StrongCG: 4
  Flow cover: 11
  Inf proof: 8
  Zero half: 1
  RLT: 43
  Relax-and-lift: 7

Explored 2010 nodes (14165 simplex iterations) in 5.09 seconds (0.24 work units)
Thread count was 32 (of 128 available processors)

Solution count 10: 10757 10757.5 10759.2 ... 17800.7

Optimal solution found (tolerance 1.00e-04)
Warning: max constraint violation (2.9897e-03) exceeds tolerance
Warning: max general constraint violation (2.9897e-03) exceeds tolerance
  Piecewise linearization of function constraints often causes big violation.
  Try to adjust the settings of the related parameters, such as FuncPieces.
Best objective 1.075704865064e+04, best bound 1.075678884295e+04, gap 0.0024%
